qbf_easy_train/easy_5029_UNSAT.qdimacs
p cnf 25 64
a 24 15 0
e 1 2 3 4 5 6 7 8 9 10 11 12 13 14 16 17 18 19 20 21 22 23 25 0
-3 4 -5 0
3 -4 -5 0
-3 -4 5 0
3 4 5 0
-6 2 0
-6 -5 0
-2 5 6 0
1 -6 -7 0
-1 6 -7 0
1 6 7 0
-1 -6 7 0
9 -4 0
9 8 0
4 -8 -9 0
-7 -9 -10 0
7 9 -10 0
-7 9 10 0
7 -9 10 0
13 11 0
13 12 0
-11 -12 -13 0
15 -14 0
15 1 0
14 -1 -15 0
16 -13 0
16 15 0
13 -15 -16 0
17 14 0
17 -11 0
-14 11 -17 0
2 -12 -18 0
-2 12 -18 0
2 12 18 0
-2 -12 18 0
19 5 0
19 -4 0
-5 4 -19 0
20 -18 0
20 19 0
18 -19 -20 0
-21 -17 0
-21 -20 0
17 20 21 0
22 3 0
22 -1 0
-3 1 -22 0
-21 22 -23 0
21 -22 -23 0
-21 -22 23 0
21 22 23 0
-24 -16 0
-24 -23 0
16 23 24 0
10 -24 -25 0
-10 24 -25 0
10 24 25 0
-10 -24 25 0
-8 -25 23 -15 0
9 -15 8 0
13 -9 3 -15 -4 0
20 -23 -21 7 3 0
25 -1 5 -17 0
-13 18 -16 0
25 0
