sat_easy_train/easy_5029_UNSAT.dimacs
p cnf 121 409
4 2 0
4 -3 0
-2 3 -4 0
-5 1 0
-5 4 0
-1 -4 5 0
7 -8 -9 0
-7 8 -9 0
7 8 9 0
-7 -8 9 0
10 -6 0
10 -9 0
6 9 -10 0
11 5 0
11 10 0
-5 -10 -11 0
7 10 -12 0
-7 -10 -12 0
7 -10 12 0
-7 10 12 0
-15 -16 -17 0
15 16 -17 0
-15 16 17 0
15 -16 17 0
-14 17 -18 0
14 -17 -18 0
-14 -17 18 0
14 17 18 0
19 13 0
19 6 0
-13 -6 -19 0
-19 18 -20 0
19 -18 -20 0
-19 -18 20 0
19 18 20 0
21 -2 0
21 20 0
2 -20 -21 0
-18 21 -22 0
18 -21 -22 0
-18 -21 22 0
18 21 22 0
23 13 0
23 22 0
-13 -22 -23 0
24 -23 0
24 -13 0
23 13 -24 0
-26 -24 0
-26 25 0
24 -25 26 0
-12 26 -27 0
12 -26 -27 0
-12 -26 27 0
12 26 27 0
11 -27 -28 0
-11 27 -28 0
11 27 28 0
-11 -27 28 0
29 -14 0
29 7 0
14 -7 -29 0
-6 -29 -30 0
6 29 -30 0
-6 29 30 0
6 -29 30 0
30 -10 -31 0
-30 10 -31 0
30 10 31 0
-30 -10 31 0
-32 18 0
-32 29 0
-18 -29 32 0
34 33 0
34 -13 0
-33 13 -34 0
32 34 -35 0
-32 -34 -35 0
32 -34 35 0
-32 34 35 0
-31 35 -36 0
31 -35 -36 0
-31 -35 36 0
31 35 36 0
37 -13 0
37 32 0
13 -32 -37 0
36 37 -38 0
-36 -37 -38 0
36 -37 38 0
-36 37 38 0
-39 17 0
-39 -3 0
-17 3 39 0
-41 1 0
-41 -40 0
-1 40 41 0
42 -39 0
42 -41 0
39 41 -42 0
-43 32 0
-43 42 0
-32 -42 43 0
-38 43 -44 0
38 -43 -44 0
-38 -43 44 0
38 43 44 0
45 28 0
45 -44 0
-28 44 -45 0
46 -41 0
46 -5 0
41 5 -46 0
47 -45 0
47 46 0
45 -46 -47 0
-49 1 0
-49 48 0
-1 -48 49 0
-50 -49 0
-50 7 0
49 -7 50 0
-52 16 0
-52 -51 0
-16 51 52 0
53 6 0
53 1 0
-6 -1 -53 0
53 6 -54 0
-53 -6 -54 0
53 -6 54 0
-53 6 54 0
55 -52 0
55 54 0
52 -54 -55 0
-56 50 0
-56 -55 0
-50 55 56 0
-57 -7 0
-57 -49 0
7 49 57 0
30 57 -58 0
-30 -57 -58 0
30 -57 58 0
-30 57 58 0
-59 10 0
-59 1 0
-10 -1 59 0
59 41 -60 0
-59 -41 -60 0
59 -41 60 0
-59 41 60 0
-61 58 0
-61 -60 0
-58 60 61 0
41 61 -62 0
-41 -61 -62 0
41 -61 62 0
-41 61 62 0
63 62 0
63 -29 0
-62 29 -63 0
56 63 -64 0
-56 -63 -64 0
56 -63 64 0
-56 63 64 0
35 1 -65 0
-35 -1 -65 0
35 -1 65 0
-35 1 65 0
-59 -10 -66 0
59 10 -66 0
-59 10 66 0
59 -10 66 0
67 -6 0
67 66 0
6 -66 -67 0
-65 67 -68 0
65 -67 -68 0
-65 -67 68 0
65 67 68 0
69 -64 0
69 -68 0
64 68 -69 0
70 -15 0
70 -9 0
15 9 -70 0
-70 -19 -71 0
70 19 -71 0
-70 19 71 0
70 -19 71 0
60 -4 -72 0
-60 4 -72 0
60 4 72 0
-60 -4 72 0
73 -71 0
73 -72 0
71 72 -73 0
69 -73 -74 0
-69 73 -74 0
69 73 74 0
-69 -73 74 0
-47 -74 -75 0
47 74 -75 0
-47 74 75 0
47 -74 75 0
77 76 0
77 13 0
-76 -13 -77 0
-78 -58 0
-78 -59 0
58 59 78 0
-79 77 0
-79 78 0
-77 -78 79 0
80 -79 0
80 -40 0
79 40 -80 0
81 -75 0
81 80 0
75 -80 -81 0
-82 3 0
-82 7 0
-3 -7 82 0
-83 61 0
-83 -82 0
-61 82 83 0
60 -83 -84 0
-60 83 -84 0
60 83 84 0
-60 -83 84 0
30 -4 -85 0
-30 4 -85 0
30 4 85 0
-30 -4 85 0
-3 14 -86 0
3 -14 -86 0
-3 -14 86 0
3 14 86 0
-86 31 -87 0
86 -31 -87 0
-86 -31 87 0
86 31 87 0
-88 -17 0
-88 8 0
17 -8 88 0
-89 -21 0
-89 -88 0
21 88 89 0
-16 -89 -90 0
16 89 -90 0
-16 89 90 0
16 -89 90 0
87 -90 -91 0
-87 90 -91 0
87 90 91 0
-87 -90 91 0
-85 -91 -92 0
85 91 -92 0
-85 91 92 0
85 -91 92 0
-16 -6 -93 0
16 6 -93 0
-16 6 93 0
16 -6 93 0
-92 93 -94 0
92 -93 -94 0
-92 -93 94 0
92 93 94 0
-95 88 0
-95 -15 0
-88 15 95 0
34 -18 -96 0
-34 18 -96 0
34 18 96 0
-34 -18 96 0
95 -96 -97 0
-95 96 -97 0
95 96 97 0
-95 -96 97 0
98 -48 0
98 14 0
48 -14 -98 0
99 8 0
99 42 0
-8 -42 -99 0
-100 98 0
-100 99 0
-98 -99 100 0
97 100 -101 0
-97 -100 -101 0
97 -100 101 0
-97 100 101 0
-102 -1 0
-102 -82 0
1 82 102 0
103 -41 0
103 -102 0
41 102 -103 0
-3 103 -104 0
3 -103 -104 0
-3 -103 104 0
3 103 104 0
-105 -83 0
-105 6 0
83 -6 105 0
-88 106 0
88 106 0
-107 105 0
-107 -106 0
-105 106 107 0
-108 104 0
-108 -107 0
-104 107 108 0
-109 -101 0
-109 108 0
101 -108 109 0
-110 19 0
-110 -70 0
-19 70 110 0
-111 41 0
-111 110 0
-41 -110 111 0
112 -111 0
112 57 0
111 -57 -112 0
-112 39 -113 0
112 -39 -113 0
-112 -39 113 0
112 39 113 0
-114 -59 0
-114 -22 0
59 22 114 0
115 -113 0
115 -114 0
113 114 -115 0
116 21 0
116 -2 0
-21 2 -116 0
117 115 0
117 116 0
-115 -116 -117 0
-118 -109 0
-118 117 0
109 -117 118 0
119 94 0
119 -118 0
-94 118 -119 0
-120 -84 0
-120 -119 0
84 119 120 0
-81 120 -121 0
81 -120 -121 0
-81 -120 121 0
81 120 121 0
-92 -106 79 -102 -111 0
86 -8 57 32 37 66 0
-104 -58 64 120 0
5 44 23 110 52 0
-5 -1 -102 -67 9 -65 0
5 44 -99 0
29 -57 -106 -82 0
-50 70 -113 -85 0
119 -31 -40 0
16 51 38 -60 121 0
83 -75 -30 -13 0
-110 47 64 -86 -66 0
65 -68 41 71 87 0
16 81 0
-8 97 0
-93 -119 0
96 80 0
34 57 0
15 -61 2 77 -80 18 0
88 -74 87 0
74 113 0
91 -15 0
40 -23 0
5 22 -33 0
56 -14 16 22 95 0
-45 26 0
43 -82 0
84 56 0
6 50 -99 -92 -106 0
-32 -82 105 -38 -46 0
-70 71 -43 0
59 85 68 0
47 120 -1 112 56 54 0
99 30 20 103 -65 0
-78 -72 117 10 0
43 77 97 0
-54 -110 -27 0
-19 6 -17 94 0
-95 -1 -115 -52 69 56 0
-110 81 78 0
12 -48 -119 0
-70 99 4 -106 80 12 0
-118 1 -17 28 0
-65 31 32 0
19 -62 -41 65 0
-120 106 54 -16 14 0
-48 103 0
20 -30 0
48 -49 0
96 -100 0
-8 -56 13 0
45 91 -36 0
85 84 0
121 0
